p cnf 8 16
c Each cell has exactly one value
1 2 0
-1 -2 0
3 4 0
-3 -4 0
5 6 0
-5 -6 0
7 8 0
-7 -8 0
c Each row contains both values
1 3 0
2 4 0
5 7 0
6 8 0
c Each column contains both values
1 5 0
2 6 0
3 7 0
4 8 0

